20714.9
20707.1
20175.7
20175.7
20076.8
20076.8
20074.6
20074.6
19505.2
19505.2
19505.2
19505.2
19492.1
18916.6
18916.6
18916.6
18916.6
18814.5
18814.5
18814.5
18814.5
18586
18586
18586
18586
18586
18586
17823
17823
17278.5
17278.5
17278.5
17278.5
17278.5
17278.5
16977.3
16977.3
16977.3
16977.3
16977.3
16977.3
16977.3
16641
16641
16641
16641
16641
16568.3
16551.5
16551.5
16551.5
16551.5
16516.6
16516.6
16516.6
16358.6
16358.6
16358.6
16138.4
16138.4
16138.4
16138.4
16138.4
16138.4
16131.7
16131.7
16131.7
15832.9
15832.9
15832.9
15832.9
15832.9
15832.9
15832.9
15832.9
15429.6
15429.6
15429.6
15429.6
15429.6
15429.6
15429.6
15429.6
15429.6
15402
15314.1
15314.1
15314.1
15314.1
15277.8
15277.8
15241.8
15095.6
14726.9
14726.9
14726.9
14726.9
14726.9
14726.9
14726.9
